3966940140631157306505,4,1,2,09,10,1,2,010,6,1,2,01,5,1,2,013,11,1,2,010,4,1,2,010,10,1,2,03,13,1,2,06,13,1,2,08,4,1,2,08,3,1,2,04,5,1,2,013,10,1,2,08,4,1,2,013,7,1,2,08,4,1,2,06,1,1,2,06,11,1,2,01,2,1,2,07,1,1,2,012,11,1,2,05,8,1,2,011,9,1,2,01,4,1,2,03,2,1,2,01,3,1,2,010,1,1,2,02,7,1,2,08,11,1,2,05,14,1,2,011,2,1,2,03,13,1,2,07,11,1,2,04,7,1,2,09,8,1,2,01,2,1,2,01,3,1,2,013,10,1,2,03,3,1,2,014,8,1,2,01,4,1,2,08,13,1,2,011,1,1,2,011,14,1,2,014,15,1,2,012,8,1,2,01,2,1,2,01,15,1,2,09,4,1,2,05,4,1,2,0